c ---- [ banner ] ------------------------------------------------------------
c
c Kissat SAT Solver
c 
c Copyright (c) 2021-2024 Armin Biere University of Freiburg
c Copyright (c) 2019-2021 Armin Biere Johannes Kepler University Linz
c 
c Version 4.0.1 43f02cf3e992cb44653b35e5cb26f93281552ae0
c gcc (Ubuntu 13.2.0-23ubuntu4) 13.2.0 -W -Wall -O3 -DNDEBUG
c Thu Sep 12 12:27:46 CEST 2024 Linux abryzen9 6.8.0-41-generic x86_64
c
c ---- [ parsing ] -----------------------------------------------------------
c
c opened and reading DIMACS file:
c
c   /data/artifact/AMulet2.0_artifact/exp4/cnf_dc2_64/64_64_U1_DT_HCA_Multgen_dc2.cnf
c
c parsed 'p cnf 29015 128225' header
c closing input after reading 2567651 bytes (2 MB)
c finished parsing after 0.02 seconds
c
c ---- [ options ] -----------------------------------------------------------
c
c --stable=0                       (different from default '1')
c
c ---- [ solving ] -----------------------------------------------------------
c
c  seconds switched rate     size/glue tier1  binary           remaining
c         MB reductions conflicts size  tier2     irredundant
c          level restarts redundant glue  trail           variables
c
c *  0.02 10 0 0 0  0 0   0   0 0.0 0 0 0 0 0% 11100 117123 29012 100%
c (  0.03 12 0 0 0  0 0   0   0 0.0 0 0 0 0 0% 11100 117123 29012 100%
c .  0.04 12 0 0 0  0 0   0   0 0.0 0 0 0 0 0% 11096 117123 29012 100%
c c  0.09 17 0 0 0  0 0   0   0 0.0 0 0 0 0 0% 17646 104023 25737 89%
c d  0.09 17 0 0 0  0 0   0   0 0.0 0 0 0 0 0% 11096 104023 25737 89%
c =  0.13 17 0 0 0  0 0   0   0 0.0 0 0 0 0 0% 11662 104021 25454 88%
c d  0.13 17 0 0 0  0 0   0   0 0.0 0 0 0 0 0% 11096 104021 25454 88%
c f  0.20 17 0 0 0  0 0   0   0 0.0 0 0 0 0 0% 15720 96744 28048 97%
c e  0.31 25 0 0 0  0 0   0   0 0.0 0 0 0 0 0% 9702 104359 19282 66%
c )  0.31 25 0 0 0  0 0   0   0 0.0 0 0 0 0 0% 9702 104359 19282 66%
c {  0.32 25 0 0 0  0 0   0   0 0.0 0 0 2 6 0% 9702 104359 19282 66%
c -  0.43 25 161 0 1 208 30 1001 736 3.0 21 7 3 13 24% 9731 104359 19282 66%
c -  0.54 25 228 0 2 313 35 2001 1433 3.4 24 7 4 13 30% 9754 104359 19282 66%
c c  0.67 20 225 0 2 391 35 2503 1889 3.5 25 7 4 14 32% 9815 104113 19247 66%
c d  0.67 20 225 0 2 391 35 2503 1884 3.5 25 7 4 14 32% 9745 104113 19247 66%
c u  0.68 20 225 0 2 391 35 2503 1509 3.5 25 7 4 14 32% 9752 104113 19247 66%
c v  0.69 20 225 0 2 391 35 2503 1392 3.5 25 7 4 14 32% 9752 104113 19247 66%
c w  0.70 20 225 0 2 391 35 2503 1392 3.5 25 7 4 14 32% 9752 104113 19247 66%
c x  0.72 25 225 0 2 391 35 2503 1392 3.5 25 7 4 14 32% 9752 104059 19247 66%
c =  0.77 25 225 0 2 391 35 2503 1392 3.5 25 7 4 14 32% 10162 104059 19042 66%
c
c  seconds   switched   rate       size/glue tier1     binary          remaining
c         MB  reductions conflicts       size  tier2      irredundant
c           level restarts    redundant    glue    trail          variables
c
c d  0.77 25 225 0 2 391 35 2503 1388 3.5 25 7 4 14 32% 9748 104059 19042 66%
c f  0.80 25 225 0 2 391 35 2503 1388 3.5 25 7 4 14 32% 10326 102909 19614 68%
c u  0.85 25 225 0 2 391 35 2503 1344 3.5 25 7 4 14 32% 10328 102909 19614 68%
c v  0.86 25 225 0 2 391 35 2503 1285 3.5 25 7 4 14 32% 10328 102909 19614 68%
c w  0.89 25 225 0 2 391 35 2503 1282 3.5 25 7 4 14 32% 10328 102909 19614 68%
c =  0.94 25 225 0 2 391 35 2503 1282 3.5 25 7 4 14 32% 10580 102909 19488 67%
c d  0.95 25 225 0 2 391 35 2503 1282 3.5 25 7 4 14 32% 10295 102909 19488 67%
c f  0.97 25 225 0 2 391 35 2503 1282 3.5 25 7 4 14 32% 10369 102796 19525 67%
c -  1.08 25 334 0 3 452 35 3415 1798 3.6 25 7 4 13 30% 10396 102796 19525 67%
c -  1.40 25 329 0 4 687 36 5147 2866 3.9 27 7 3 12 30% 10442 102796 19525 67%
c -  1.68 25 325 0 5 848 36 7148 3896 3.7 26 7 3 11 29% 10532 102796 19525 67%
c d  1.77 25 329 0 5 894 37 7708 4341 3.9 27 7 3 11 29% 10463 102796 19483 67%
c u  1.79 25 329 0 5 894 37 7708 3650 3.9 27 7 3 11 29% 10480 102796 19483 67%
c v  1.81 25 329 0 5 894 37 7708 3299 3.9 27 7 3 11 29% 10480 102796 19483 67%
c w  1.84 25 329 0 5 894 37 7708 3299 3.9 27 7 3 11 29% 10480 102796 19483 67%
c x  1.86 25 329 0 5 894 37 7708 3299 3.9 27 7 3 11 29% 10480 102071 19483 67%
c =  1.95 25 329 0 5 894 37 7708 3299 3.9 27 7 3 11 29% 11346 102071 19050 66%
c d  1.95 25 329 0 5 894 37 7708 3277 3.9 27 7 3 11 29% 10363 102071 19047 66%
c t  1.96 25 329 0 5 894 37 7708 3277 3.9 27 7 3 11 29% 10359 102071 19047 66%
c f  1.99 25 329 0 5 894 37 7708 3277 3.9 27 7 3 11 29% 10819 101367 19277 66%
c
c  seconds   switched   rate       size/glue tier1     binary           remaining
c         MB  reductions conflicts       size  tier2       irredundant
c           level restarts    redundant    glue    trail           variables
c
c c  2.04 25 329 0 5 894 37 7708 3277 3.9 27 7 3 11 29% 10824 101351 19274 66%
c d  2.04 25 329 0 5 894 37 7708 3277 3.9 27 7 3 11 29% 10818 101351 19274 66%
c u  2.06 25 329 0 5 894 37 7708 3168 3.9 27 7 3 11 29% 10821 101351 19274 66%
c v  2.08 25 329 0 5 894 37 7708 3085 3.9 27 7 3 11 29% 10821 101351 19274 66%
c w  2.11 25 329 0 5 894 37 7708 3081 3.9 27 7 3 11 29% 10821 101351 19274 66%
c x  2.13 25 329 0 5 894 37 7708 3081 3.9 27 7 3 11 29% 10821 101326 19274 66%
c =  2.22 25 329 0 5 894 37 7708 3081 3.9 27 7 3 11 29% 11711 101326 18829 65%
c d  2.23 25 329 0 5 894 37 7708 3051 3.9 27 7 3 11 29% 10693 101326 18829 65%
c t  2.24 25 329 0 5 894 37 7708 3051 3.9 27 7 3 11 29% 10649 101326 18829 65%
c f  2.27 25 329 0 5 894 37 7708 3051 3.9 27 7 3 11 29% 12648 98327 19828 68%
c -  2.66 25 324 0 6 1123 37 9386 3922 4.2 29 7 3 11 30% 12691 98327 19828 68%
c o  2.77 25 337 0 6 1158 36 10352 4761 4.2 29 7 3 11 29% 12720 98327 19828 68%
c -  3.04 25 317 0 7 1316 35 11838 5233 4.3 30 7 2 10 29% 12757 98327 19828 68%
c s  3.21 25 311 0 7 1394 35 12507 5845 4.3 31 7 2 10 30% 12769 92381 19828 68%
c e  3.29 25 311 0 7 1394 35 12507 5845 4.3 31 7 2 10 30% 11775 93052 19270 66%
c s  3.29 25 311 0 7 1394 35 12507 5845 4.3 31 7 2 10 30% 11780 92362 19270 66%
c e  3.30 25 311 0 7 1394 35 12507 5845 4.3 31 7 2 10 30% 11776 92365 19269 66%
c ^  3.30 25 311 0 7 1394 35 12507 5845 4.3 31 7 2 10 30% 11776 92365 19269 66%
c -  3.87 25 305 0 8 1693 37 14483 6278 4.6 36 8 2 10 31% 11818 92365 19269 66%
c d  4.05 25 309 0 8 1760 35 15789 7423 4.5 35 8 2 10 30% 11489 92361 19055 66%
c
c  seconds   switched    rate        size/glue tier1     binary          remaining
c         MB  reductions   conflicts       size  tier2       irredundant
c           level  restarts     redundant    glue    trail          variables
c
c u  4.07 25 309 0 8 1760 35 15789 6706 4.5 35 8 2 10 30% 11496 92361 19055 66%
c v  4.11 25 309 0 8 1760 35 15789 5777 4.5 35 8 2 10 30% 11497 92361 19055 66%
c w  4.19 25 309 0 8 1760 35 15789 5760 4.5 35 8 2 10 30% 11497 92361 19055 66%
c =  4.36 25 309 0 8 1760 35 15789 5760 4.5 35 8 2 10 30% 12513 92361 18547 64%
c d  4.36 25 309 0 8 1760 35 15789 5683 4.5 35 8 2 10 30% 11299 92361 18547 64%
c t  4.38 25 309 0 8 1760 35 15789 5683 4.5 35 8 2 10 30% 11230 92361 18547 64%
c f  4.42 25 309 0 8 1760 35 15789 5683 4.5 35 8 2 10 30% 11376 92067 18621 64%
c u  4.45 25 309 0 8 1760 35 15789 5555 4.5 35 8 2 10 30% 11378 92067 18621 64%
c v  4.47 25 309 0 8 1760 35 15789 5407 4.5 35 8 2 10 30% 11378 92067 18621 64%
c w  4.53 25 309 0 8 1760 35 15789 5388 4.5 35 8 2 10 30% 11378 92067 18621 64%
c x  4.57 25 309 0 8 1760 35 15789 5388 4.5 35 8 2 10 30% 11399 90906 18621 64%
c =  4.75 25 309 0 8 1760 35 15789 5388 4.5 35 8 2 10 30% 13331 90902 17655 61%
c d  4.76 25 309 0 8 1760 35 15789 5325 4.5 35 8 2 10 30% 10651 90902 17655 61%
c -  5.02 25 304 0 9 1862 35 17311 5870 4.4 34 8 2 10 30% 10657 90902 17655 61%
c -  5.37 25 306 0 10 2015 34 20311 7480 4.4 33 7 2 9 29% 10715 90902 17655 61%
c o  5.40 25 305 0 10 2016 34 20395 7533 4.5 34 7 2 9 29% 10720 90902 17655 61%
c -  5.77 25 309 0 11 2222 33 23474 8894 4.5 33 7 2 8 29% 10785 90902 17655 61%
c s  5.91 25 307 0 11 2275 33 25007 10151 4.4 32 7 2 8 28% 10833 86947 17655 61%
c e  5.98 25 307 0 11 2275 33 25007 10151 4.4 32 7 2 8 28% 8943 89468 16588 57%
c s  5.99 25 307 0 11 2275 33 25007 10151 4.4 32 7 2 8 28% 8947 89135 16588 57%
c
c  seconds   switched     rate         size/glue tier1    binary         remaining
c         MB   reductions   conflicts        size  tier2     irredundant
c           level   restarts      redundant    glue   trail         variables
c
c e  6.00 25 307 0 11 2275 33 25007 10151 4.4 32 7 2 8 28% 8946 89137 16587 57%
c ^  6.00 25 307 0 11 2275 33 25007 10151 4.4 32 7 2 8 28% 8946 89137 16587 57%
c -  6.13 25 295 0 12 2335 31 26790 9574 4.3 31 7 2 8 27% 8987 89137 16587 57%
c c  6.22 25 295 0 12 2361 31 26915 9692 4.3 32 7 2 8 27% 9055 88753 16532 57%
c d  6.22 25 295 0 12 2361 31 26915 9592 4.3 32 7 2 8 27% 8900 88753 16505 57%
c u  6.25 25 295 0 12 2361 31 26915 8424 4.3 32 7 2 8 27% 8920 88753 16505 57%
c v  6.28 25 295 0 12 2361 31 26915 7388 4.3 32 7 2 8 27% 8924 88753 16505 57%
c w  6.31 25 295 0 12 2361 31 26915 7385 4.3 32 7 2 8 27% 8924 88753 16505 57%
c x  6.34 25 295 0 12 2361 31 26915 7385 4.3 32 7 2 8 27% 8924 87849 16505 57%
c =  6.49 25 295 0 12 2361 31 26915 7385 4.3 32 7 2 8 27% 11768 87845 15083 52%
c d  6.50 25 295 0 12 2361 31 26915 7277 4.3 32 7 2 8 27% 8856 87845 15078 52%
c t  6.51 25 295 0 12 2361 31 26915 7277 4.3 32 7 2 8 27% 8851 87845 15078 52%
c f  6.55 25 295 0 12 2361 31 26915 7277 4.3 32 7 2 8 27% 8865 87801 15087 52%
c u  6.58 25 295 0 12 2361 31 26915 6922 4.3 32 7 2 8 27% 8871 87801 15087 52%
c v  6.59 25 295 0 12 2361 31 26915 6782 4.3 32 7 2 8 27% 8871 87801 15087 52%
c w  6.62 25 295 0 12 2361 31 26915 6778 4.3 32 7 2 8 27% 8871 87801 15087 52%
c x  6.66 25 295 0 12 2361 31 26915 6778 4.3 32 7 2 8 27% 8871 85317 15087 52%
c =  6.80 25 295 0 12 2361 31 26915 6778 4.3 32 7 2 8 27% 10069 85317 14488 50%
c d  6.81 25 295 0 12 2361 31 26915 6669 4.3 32 7 2 8 27% 8818 85317 14488 50%
c t  6.82 25 295 0 12 2361 31 26915 6669 4.3 32 7 2 8 27% 8817 85317 14488 50%
c
c  seconds   switched     rate        size/glue tier1    binary         remaining
c         MB   reductions   conflicts       size  tier2     irredundant
c           level   restarts     redundant    glue   trail         variables
c
c -  7.15 25 301 0 13 2561 30 30254 8645 4.2 30 7 2 8 27% 8853 85317 14488 50%
c -  7.67 25 292 0 14 2940 31 33867 10593 4.2 31 7 2 7 27% 8895 85316 14488 50%
c -  8.12 25 290 0 15 3245 30 37608 12047 4.2 31 8 2 7 26% 8967 85316 14488 50%
c o  8.35 27 282 0 15 3392 30 40399 14275 4.1 31 7 2 7 26% 9030 85316 14488 50%
c c  8.51 27 281 0 15 3477 30 41242 15007 4.1 31 7 2 7 26% 9132 84558 14360 49%
c d  8.51 27 281 0 15 3477 30 41242 14419 4.1 31 7 2 7 26% 8874 84558 14359 49%
c u  8.55 27 281 0 15 3477 30 41242 12346 4.1 31 7 2 7 26% 8901 84558 14359 49%
c v  8.59 27 281 0 15 3477 30 41242 10939 4.1 31 7 2 7 26% 8907 84558 14359 49%
c w  8.62 27 281 0 15 3477 30 41242 10887 4.1 31 7 2 7 26% 8907 84558 14359 49%
c x  8.67 27 281 0 15 3477 30 41242 10884 4.1 31 7 2 7 26% 8911 76828 14359 49%
c d  8.82 27 281 0 15 3477 30 41242 10873 4.1 31 7 2 7 26% 8895 76828 14351 49%
c t  8.83 27 281 0 15 3477 30 41242 10873 4.1 31 7 2 7 26% 8892 76828 14351 49%
c f  8.84 27 281 0 15 3477 30 41242 10873 4.1 31 7 2 7 26% 8894 76823 14352 49%
c c  8.88 27 281 0 15 3477 30 41242 10862 4.1 31 7 2 7 26% 8900 76799 14349 49%
c d  8.88 27 281 0 15 3477 30 41242 10862 4.1 31 7 2 7 26% 8894 76799 14349 49%
c u  8.91 27 281 0 15 3477 30 41242 10378 4.1 31 7 2 7 26% 8902 76799 14349 49%
c v  8.94 27 281 0 15 3477 30 41242 9942 4.1 31 7 2 7 26% 8902 76799 14349 49%
c w  9.01 27 281 0 15 3477 30 41242 9932 4.1 31 7 2 7 26% 8902 76799 14349 49%
c x  9.05 27 281 0 15 3477 30 41242 9932 4.1 31 7 2 7 26% 8906 73472 14349 49%
c d  9.06 27 281 0 15 3477 30 41242 9931 4.1 31 7 2 7 26% 8898 73472 14345 49%
c
c  seconds   switched     rate        size/glue tier1    binary         remaining
c         MB   reductions   conflicts       size  tier2     irredundant
c           level   restarts     redundant    glue   trail         variables
c
c t  9.07 27 281 0 15 3477 30 41242 9931 4.1 31 7 2 7 26% 8896 73472 14345 49%
c -  9.14 27 281 0 16 3526 30 41481 9047 4.1 31 8 2 7 26% 8897 73472 14345 49%
c -  9.46 27 270 0 17 3735 29 45482 11164 4.0 30 7 2 7 25% 8923 73471 14345 49%
c -  9.89 27 264 0 18 3998 28 49605 13169 3.9 30 8 2 7 25% 8980 73471 14345 49%
c s 10.18 27 259 0 18 4204 27 52107 15352 3.9 30 8 2 7 25% 8993 72925 14345 49%
c e 10.23 27 259 0 18 4204 27 52107 15352 3.9 30 8 2 7 25% 8633 73503 14060 48%
c 2 10.23 27 259 0 18 4204 27 52107 15352 3.9 30 8 2 7 25% 8632 73503 14060 48%
c s 10.24 27 259 0 18 4204 27 52107 15352 3.9 30 8 2 7 25% 8632 73358 14060 48%
c e 10.24 27 259 0 18 4204 27 52107 15352 3.9 30 8 2 7 25% 8632 73361 14058 48%
c ^ 10.24 27 259 0 18 4204 27 52107 15352 3.9 30 8 2 7 25% 8632 73361 14058 48%
c - 10.46 27 255 0 19 4374 27 53847 14100 3.9 30 8 2 6 25% 8664 73361 14058 48%
c - 10.87 27 257 0 20 4668 27 58205 15748 3.8 29 8 2 6 25% 8760 73361 14058 48%
c d 10.89 27 264 0 20 4682 27 58890 16061 3.8 29 7 2 6 25% 8645 73361 13990 48%
c u 10.94 27 264 0 20 4682 27 58890 13776 3.8 29 7 2 6 25% 8693 73361 13990 48%
c v 10.98 27 264 0 20 4682 27 58890 12273 3.8 29 7 2 6 25% 8700 73361 13990 48%
c w 10.99 27 264 0 20 4682 27 58890 12205 3.8 29 7 2 6 25% 8701 73361 13990 48%
c x 11.04 27 264 0 20 4682 27 58890 12205 3.8 29 7 2 6 25% 8704 73265 13990 48%
c = 11.22 27 264 0 20 4682 27 58890 12205 3.8 29 7 2 6 25% 8794 73265 13945 48%
c d 11.22 27 264 0 20 4682 27 58890 12144 3.8 29 7 2 6 25% 8649 73265 13920 48%
c t 11.23 27 264 0 20 4682 27 58890 12144 3.8 29 7 2 6 25% 8640 73265 13920 48%
c
c  seconds   switched     rate         size/glue tier1    binary         remaining
c         MB   reductions   conflicts        size  tier2     irredundant
c           level   restarts      redundant    glue   trail         variables
c
c f 11.25 27 264 0 20 4682 27 58890 12144 3.8 29 7 2 6 25% 8641 73240 13924 48%
c c 11.28 27 264 0 20 4682 27 58890 11981 3.8 29 7 2 6 25% 8777 72563 13844 48%
c d 11.29 27 264 0 20 4682 27 58890 11981 3.8 29 7 2 6 25% 8617 72563 13844 48%
c u 11.32 27 264 0 20 4682 27 58890 11444 3.8 29 7 2 6 25% 8643 72563 13844 48%
c v 11.35 27 264 0 20 4682 27 58890 11098 3.8 29 7 2 6 25% 8648 72563 13844 48%
c w 11.36 27 264 0 20 4682 27 58890 11092 3.8 29 7 2 6 25% 8649 72563 13844 48%
c = 11.56 27 264 0 20 4682 27 58890 11092 3.8 29 7 2 6 25% 9371 72563 13483 46%
c d 11.56 27 264 0 20 4682 27 58890 10919 3.8 29 7 2 6 25% 8590 72563 13477 46%
c - 12.05 27 258 0 21 5038 27 62677 12764 3.8 28 8 2 6 25% 8640 72563 13477 46%
c - 12.72 27 253 0 22 5524 27 67259 15091 3.8 29 8 2 6 25% 8699 72563 13477 46%
c o 13.21 27 248 0 22 5865 27 70565 17958 3.7 29 8 2 6 26% 8772 72563 13477 46%
c - 13.44 27 247 0 23 6040 27 71951 16961 3.8 29 8 2 6 26% 8789 72563 13477 46%
c - 13.85 27 245 0 24 6327 26 76746 18378 3.7 28 8 2 6 26% 8863 72562 13477 46%
c c 14.41 27 241 0 24 6697 26 79972 21210 3.7 29 8 2 6 26% 9016 71259 13272 46%
c d 14.42 27 241 0 24 6697 26 79972 20506 3.7 29 8 2 6 26% 8606 71259 13272 46%
c u 14.48 27 241 0 24 6697 26 79972 17315 3.7 29 8 2 6 26% 8648 71259 13272 46%
c v 14.54 27 241 0 24 6697 26 79972 15310 3.7 29 8 2 6 26% 8660 71259 13272 46%
c w 14.61 27 241 0 24 6697 26 79972 15309 3.7 29 8 2 6 26% 8660 71259 13272 46%
c x 14.67 27 241 0 24 6697 26 79972 15303 3.7 29 8 2 6 26% 8661 67787 13272 46%
c = 14.84 27 241 0 24 6697 26 79972 15303 3.7 29 8 2 6 26% 9319 67787 12943 45%
c
c  seconds   switched     rate         size/glue tier1    binary         remaining
c         MB   reductions   conflicts        size  tier2     irredundant
c           level   restarts      redundant    glue   trail         variables
c
c d 14.84 27 241 0 24 6697 26 79972 14878 3.7 29 8 2 6 26% 8569 67787 12938 45%
c t 14.85 27 241 0 24 6697 26 79972 14878 3.7 29 8 2 6 26% 8561 67787 12938 45%
c u 14.94 27 241 0 24 6697 26 79972 13992 3.7 29 8 2 6 26% 8567 67787 12938 45%
c v 14.97 27 241 0 24 6697 26 79972 13624 3.7 29 8 2 6 26% 8569 67787 12938 45%
c w 15.08 27 241 0 24 6697 26 79972 13581 3.7 29 8 2 6 26% 8569 67787 12938 45%
c x 15.15 27 241 0 24 6697 26 79972 13581 3.7 29 8 2 6 26% 8574 65687 12938 45%
c = 15.49 27 241 0 24 6697 26 79972 13581 3.7 29 8 2 6 26% 9056 65421 12668 44%
c d 15.49 27 241 0 24 6697 26 79972 13175 3.7 29 8 2 6 26% 8548 65421 12667 44%
c t 15.50 27 241 0 24 6697 26 79972 13175 3.7 29 8 2 6 26% 8546 65421 12667 44%
c - 15.70 27 237 0 25 6827 26 81644 11463 3.7 28 8 1 6 26% 8552 65413 12667 44%
c - 16.30 27 229 0 26 7340 25 86645 13389 3.6 28 8 1 6 26% 8597 65404 12667 44%
c i 16.50 27 224 0 26 7496 25 89171 15522 3.5 27 8 1 6 26% 8647 65404 12666 44%
c - 16.75 27 220 0 27 7722 24 91745 14741 3.5 27 8 1 6 26% 8691 65404 12666 44%
c i 16.86 27 218 0 27 7855 25 92499 15414 3.5 27 8 1 6 27% 8697 65404 12665 44%
c i 16.97 27 217 0 27 7949 24 93390 16203 3.5 27 8 1 6 27% 8706 65404 12664 44%
c i 17.04 27 215 0 27 7990 24 94238 16964 3.5 27 8 1 6 27% 8713 65404 12663 44%
c i 17.20 27 213 0 27 8147 24 95789 18382 3.4 27 8 1 6 27% 8729 65404 12662 44%
c s 17.21 27 213 0 27 8147 24 95815 18407 3.4 27 8 1 6 27% 8729 64227 12662 44%
c e 17.28 27 213 0 27 8147 24 95815 18407 3.4 27 8 1 6 27% 5566 71161 11018 38%
c s 17.29 27 213 0 27 8147 24 95815 18407 3.4 27 8 1 6 27% 5566 70493 11018 38%
c
c  seconds   switched     rate         size/glue tier1    binary         remaining
c         MB   reductions   conflicts        size  tier2     irredundant
c           level   restarts      redundant    glue   trail         variables
c
c e 17.30 27 213 0 27 8147 24 95815 18407 3.4 27 8 1 6 27% 5559 70571 10980 38%
c ^ 17.30 27 213 0 27 8147 24 95815 18407 3.4 27 8 1 6 27% 5559 70571 10980 38%
c - 17.42 27 211 0 28 8274 24 96941 11496 3.4 27 8 1 6 27% 5563 70571 10980 38%
c i 17.44 27 210 0 28 8293 24 97190 11729 3.4 27 8 1 6 27% 5565 70571 10979 38%
c i 17.52 27 209 0 28 8406 24 97806 12292 3.4 27 8 1 6 27% 5570 70571 10978 38%
c i 17.59 27 208 0 28 8506 24 98675 13090 3.4 26 8 1 6 27% 5577 70571 10977 38%
c i 17.74 27 202 0 28 8695 23 102006 15661 3.3 26 8 1 6 26% 5644 70566 10974 38%
c i 17.75 27 202 0 28 8701 23 102069 15713 3.3 26 8 1 6 26% 5646 70566 10972 38%
c i 17.76 27 202 0 28 8712 23 102179 15810 3.3 26 8 1 6 26% 5647 70566 10970 38%
c - 17.76 27 201 0 29 8713 23 102234 12880 3.3 26 8 1 6 26% 5636 70566 10970 38%
c i 17.77 27 201 0 29 8722 23 102330 12951 3.3 26 8 1 6 26% 5639 70566 10969 38%
c i 17.77 27 201 0 29 8732 23 102439 13044 3.3 26 8 1 6 26% 5642 70566 10968 38%
c i 17.78 27 200 0 29 8747 23 102809 13371 3.3 26 8 1 6 26% 5646 70566 10967 38%
c i 17.80 27 199 0 29 8780 23 103477 13945 3.3 26 8 1 6 26% 5649 70566 10966 38%
c i 17.80 27 198 0 29 8781 23 103803 14180 3.3 26 8 1 6 26% 5653 70566 10965 38%
c i 17.80 27 196 0 29 8781 22 104604 14772 3.3 26 8 1 6 25% 5663 70566 10964 38%
c d 17.81 27 196 0 29 8786 22 104648 14371 3.3 25 8 1 6 25% 5622 70415 10926 38%
c d 17.82 27 196 0 29 8786 22 104648 14351 3.3 25 8 1 6 25% 5589 70403 10910 38%
c u 17.84 27 196 0 29 8786 22 104648 13132 3.3 25 8 1 6 25% 5606 70403 10909 38%
c v 17.89 27 196 0 29 8786 22 104648 11005 3.3 25 8 1 6 25% 5626 70403 10907 38%
c
c  seconds   switched     rate          size/glue tier1    binary         remaining
c         MB   reductions   conflicts         size  tier2     irredundant
c           level   restarts       redundant    glue   trail         variables
c
c w 17.91 27 196 0 29 8786 22 104648 10791 3.3 25 8 1 6 25% 5633 70403 10876 37%
c x 17.99 27 196 0 29 8786 22 104648 10790 3.3 25 8 1 6 25% 5710 69364 10867 37%
c = 18.11 27 196 0 29 8786 22 104648 10790 3.3 25 8 1 6 25% 5790 69269 10801 37%
c } 18.11 27 196 0 29 8786 22 104648 10790 3.3 25 8 1 6 25% 5790 69269 10848 37%
c 0 18.11 27 196 0 29 8786 22 104648 10790 3.3 25 8 1 6 25% 5790 69269 10848 37%
c
c ---- [ result ] ------------------------------------------------------------
c
s UNSATISFIABLE
c
c ---- [ profiling ] ---------------------------------------------------------
c
c          12.38   68.33 %  search
c          12.38   68.33 %  focused
c           5.42   29.92 %  simplify
c           5.18   28.61 %  probe
c           2.14   11.79 %  sweep
c           1.92   10.59 %  vivify
c           0.40    2.19 %  eliminate
c           0.37    2.03 %  congruence
c           0.37    2.03 %  factor
c           0.29    1.59 %  substitute
c           0.28    1.52 %  preprocess
c           0.11    0.61 %  fastel
c           0.11    0.61 %  reduce
c           0.08    0.42 %  transitive
c           0.07    0.39 %  subsume
c           0.03    0.15 %  backbone
c           0.02    0.12 %  parse
c           0.02    0.11 %  lucky
c =============================================
c          18.11  100.00 %  total
c
c ---- [ statistics ] --------------------------------------------------------
c
c chronological:                         4302                4 %  conflicts
c conflicts:                           104648             5777.13 per second
c congruent:                             3784               13 %  variables
c decisions:                          2366860               22.62 per conflict
c eliminated:                           12362               43 %  variables
c factored:                              4520               16 %  variables
c fast_eliminated:                       8766               71 %  eliminated
c fast_strengthened:                       32                6 %  per strengthened
c fast_subsumed:                           75                1 %  per subsumed
c iterations:                              17                0 %  variables
c propagations:                      93414578          5156986    per second
c reductions:                              29             3609    interval
c reordered:                                4            26162    interval
c restarts:                              8786               12    interval
c strengthened:                           537                0 %  checks
c substituted:                          10209               35 %  variables
c subsumed:                             13490                1 %  checks
c switched:                                 0                0    interval
c vivified:                             56957               13 %  checks
c
c ---- [ glue usage ] --------------------------------------------------------
c
c focused glue 1   used 121547 clauses 51.17% accumulated 51.17% tier1
c focused glue 2   used  53339 clauses 22.46% accumulated 73.63%
c focused glue 3-4 used  28893 clauses 12.16% accumulated 85.79%
c focused glue 5   used   7365 clauses  3.10% accumulated 88.90%
c focused glue 6   used   5412 clauses  2.28% accumulated 91.17% tier2
c
c ---- [ resources ] ---------------------------------------------------------
c
c maximum-resident-set-size:         28717056 bytes         27 MB
c process-time:                            18s              18.11 seconds
c
c ---- [ shutting down ] -----------------------------------------------------
c
c exit 20
